************************************************************************
file with basedata            : 
initial value random generator: 
************************************************************************
projects                      :  1
jobs (incl. supersource/sink ):  84
horizon                       :  410
RESOURCES
  - renewable                 :  4   R
  - nonrenewable              :  0   N
  - doubly constrained        :  0   D
************************************************************************
PROJECT INFORMATION:
pronr.  #jobs rel.date duedate tardcost  MPM-Time
	1     82      0       10        1       10
************************************************************************
PRECEDENCE RELATIONS:
jobnr.    #modes  #successors   successors
   1        1         14           2   3   4   5   6   7   8   9  10  11  12  13  14  15 
   2        1          1          16 
   3        1          1          17 
   4        1          1          18 
   5        1          1          19 
   6        1          1          20 
   7        1          1          21 
   8        1          1          22 
   9        1          8          23  24  25  26  27  28  29  30 
  10        1          7          32  33  34  35  36  37  38 
  11        1          6          40  41  42  43  44  45 
  12        1          6          48  49  50  51  52  53 
  13        1          5          59  60  61  62  63 
  14        1          5          67  68  69  70  71 
  15        1          4          76  77  78  79 
  16        1          8          23  24  25  26  27  28  29  30 
  17        1          6          40  41  42  43  44  45 
  18        1          6          40  41  42  43  44  45 
  19        1          6          48  49  50  51  52  53 
  20        1          6          48  49  50  51  52  53 
  21        1          5          59  60  61  62  63 
  22        1          5          59  60  61  62  63 
  23        1          1          31 
  24        1          7          32  33  34  35  36  37  38 
  25        1          6          40  41  42  43  44  45 
  26        1          6          48  49  50  51  52  53 
  27        1          5          59  60  61  62  63 
  28        1          5          67  68  69  70  71 
  29        1          4          76  77  78  79 
  30        1          1          84 
  31        1          7          32  33  34  35  36  37  38 
  32        1          1          39 
  33        1          6          40  41  42  43  44  45 
  34        1          6          48  49  50  51  52  53 
  35        1          5          59  60  61  62  63 
  36        1          5          67  68  69  70  71 
  37        1          4          76  77  78  79 
  38        1          1          84 
  39        1          6          40  41  42  43  44  45 
  40        1          1          46 
  41        1          1          47 
  42        1          5          59  60  61  62  63 
  43        1          5          67  68  69  70  71 
  44        1          4          76  77  78  79 
  45        1          1          84 
  46        1          6          48  49  50  51  52  53 
  47        1          6          48  49  50  51  52  53 
  48        1          1          54 
  49        1          1          55 
  50        1          1          56 
  51        1          1          57 
  52        1          1          58 
  53        1          1          84 
  54        1          5          59  60  61  62  63 
  55        1          5          59  60  61  62  63 
  56        1          5          59  60  61  62  63 
  57        1          5          59  60  61  62  63 
  58        1          5          59  60  61  62  63 
  59        1          1          64 
  60        1          1          65 
  61        1          1          66 
  62        1          5          67  68  69  70  71 
  63        1          1          84 
  64        1          5          67  68  69  70  71 
  65        1          5          67  68  69  70  71 
  66        1          4          76  77  78  79 
  67        1          1          72 
  68        1          1          73 
  69        1          1          74 
  70        1          1          75 
  71        1          1          84 
  72        1          4          76  77  78  79 
  73        1          4          76  77  78  79 
  74        1          1          84 
  75        1          4          76  77  78  79 
  76        1          1          80 
  77        1          1          81 
  78        1          1          82 
  79        1          1          83 
  80        1          1          84 
  81        1          1          84 
  82        1          1          84 
  83        1          1          84 
  84        1          0         
************************************************************************
REQUESTS/DURATIONS:
jobnr. mode duration  R 1  R 2  R 3  R 4
------------------------------------------------------------------------
  1      1     0       0    0    0    0
  2      1     7       2    5    2    0
  3      1     5       5    0    7    0
  4      1     5       5    8    9    2
  5      1     3       2   10    0    0
  6      1    10       8    1    4    2
  7      1     7       3    0    0    0
  8      1     4       0    2    0    0
  9      1     4       0    0    2    2
 10      1     6       0    4    0    1
 11      1     2       4    0    8    7
 12      1     2       9   10    0   10
 13      1     3       0    8    9    0
 14      1     8       0    8    0    0
 15      1     7       0    9    0    4
 16      1     1       2    8    0    0
 17      1     4      10    2    0    5
 18      1     4       3    3    9    0
 19      1     3       0    7    0    0
 20      1     1       4    4    0    0
 21      1     1       3    5    5    1
 22      1     7       0    0    0    0
 23      1     4       2    4    0    0
 24      1     3       1    4    7    9
 25      1     1       0    9    0    8
 26      1     2       0    0    0    5
 27      1     5       0    0    0    0
 28      1     9       0    0    0    1
 29      1     5       0    7    2    4
 30      1     8       5    6    0    0
 31      1     5       0    0    0    0
 32      1     9       0    1    6    0
 33      1    10       7    0    3    8
 34      1     5       5    2    0    0
 35      1     9      10    4    0    1
 36      1     1       5   10    0    8
 37      1     1       3    8    6    9
 38      1     7       0    0    0    1
 39      1    10       0    0    0    0
 40      1    10       1    4   10    0
 41      1     3       1    9    6    3
 42      1    10       0    0    9    0
 43      1     4       0    9    0   10
 44      1     3       0    0    0    0
 45      1     8       0    6    9    9
 46      1     2       9    0    3    0
 47      1     7       0    0    0    0
 48      1     3       1    7    8    4
 49      1    10       0    7    0    0
 50      1     4       0    7   10    0
 51      1     7       8    9    0    8
 52      1     9       0    4    1    4
 53      1     8       4   10    0    0
 54      1     4       0   10    2    0
 55      1     7       4    0    7    0
 56      1     3       0    0    0    0
 57      1     7       0    1    2    5
 58      1     7       0    2    3    0
 59      1     7      10    9    3    4
 60      1     6       0    7    0    0
 61      1     8       0    5    7    0
 62      1     5       1    0    1    0
 63      1     4       0    0    1    0
 64      1     2       0    0    0    0
 65      1     9       0    3   10    1
 66      1     6       0    0    8    6
 67      1     5       0    4    2    0
 68      1     4       0    0    0    0
 69      1     2       0    2    0    0
 70      1    10       0    8    0    0
 71      1    10       0    4    6   10
 72      1     9       0    8    0    7
 73      1     5       2    9    2    6
 74      1     1       0    7    3    5
 75      1     7       0    1    4    8
 76      1     2       9    0    9    0
 77      1     4      10    5   10    0
 78      1     3       0    0    4    0
 79      1     5       9    7    1    6
 80      1     8       6    3    2    0
 81      1     7       8   10    0    8
 82      1     3       9    0    3   10
 83      1     1       6    6    0    2
 84      1     0       0    0    0    0
************************************************************************
RESOURCEAVAILABILITIES:
  R 1  R 2  R 3  R 4
   11   10   11   20
************************************************************************
